NAME: sim-grid-A-15
TYPE: TSP
COMMENT: Semi-regular Grid
DIMENSION: 15
EDGE_WEIGHT_TYPE: EUC_2D
NODE_COORD_SECTION
1 50 100
2 200 100
3 950 100
4 1100 100
5 650 150
6 950 150
7 1100 150
8 1150 350
9 1300 350
10 350 600
11 950 600
12 1100 600
13 100 650
14 600 650
15 1450 650
EOF
